60
1 0 1
2 0 3
2 1 5
3 0 3
3 1 5
3 2 4
4 0 2
4 1 1
4 2 5
4 3 2
5 0 3
5 1 5
5 2 5
5 3 5
5 4 3
6 0 1
6 1 5
6 2 4
6 3 1
6 4 4
6 5 2
7 0 5
7 1 3
7 2 1
7 3 2
7 4 1
7 5 5
7 6 1
8 0 3
8 1 1
8 2 1
8 3 3
8 4 4
8 5 3
8 6 2
8 7 5
9 0 5
9 1 3
9 2 3
9 3 5
9 4 1
9 5 4
9 6 2
9 7 5
9 8 5
10 0 2
10 1 5
10 2 3
10 3 5
10 4 3
10 5 2
10 6 4
10 7 2
10 8 1
10 9 3
11 0 2
11 1 3
11 2 2
11 3 4
11 4 2
11 5 1
11 6 5
11 7 1
11 8 3
11 9 4
11 10 2
12 0 2
12 1 2
12 2 4
12 3 5
12 4 3
12 5 5
12 6 1
12 7 1
12 8 2
12 9 5
12 10 1
12 11 5
13 0 3
13 1 3
13 2 3
13 3 5
13 4 1
13 5 1
13 6 3
13 7 3
13 8 2
13 9 2
13 10 1
13 11 5
13 12 1
14 0 4
14 1 4
14 2 3
14 3 2
14 4 1
14 5 1
14 6 5
14 7 4
14 8 2
14 9 2
14 10 4
14 11 3
14 12 2
14 13 3
15 0 1
15 1 3
15 2 4
15 3 2
15 4 5
15 5 3
15 6 2
15 7 4
15 8 5
15 9 4
15 10 3
15 11 5
15 12 3
15 13 2
15 14 4
16 0 5
16 1 2
16 2 2
16 3 2
16 4 2
16 5 3
16 6 5
16 7 4
16 8 2
16 9 1
16 10 4
16 11 1
16 12 5
16 13 3
16 14 5
16 15 4
17 0 2
17 1 5
17 2 1
17 3 4
17 4 5
17 5 4
17 6 5
17 7 5
17 8 2
17 9 3
17 10 1
17 11 5
17 12 4
17 13 3
17 14 4
17 15 3
17 16 2
18 0 3
18 1 3
18 2 3
18 3 3
18 4 4
18 5 1
18 6 4
18 7 4
18 8 3
18 9 1
18 10 4
18 11 2
18 12 4
18 13 5
18 14 5
18 15 5
18 16 3
18 17 2
19 0 2
19 1 2
19 2 5
19 3 3
19 4 3
19 5 5
19 6 2
19 7 5
19 8 2
19 9 1
19 10 3
19 11 3
19 12 1
19 13 5
19 14 1
19 15 4
19 16 2
19 17 4
19 18 1
20 0 1
20 1 4
20 2 1
20 3 4
20 4 1
20 5 5
20 6 4
20 7 4
20 8 3
20 9 5
20 10 3
20 11 4
20 12 4
20 13 4
20 14 5
20 15 1
20 16 1
20 17 5
20 18 3
20 19 2
21 0 2
21 1 1
21 2 2
21 3 5
21 4 1
21 5 5
21 6 5
21 7 1
21 8 3
21 9 4
21 10 1
21 11 3
21 12 5
21 13 3
21 14 3
21 15 1
21 16 3
21 17 2
21 18 3
21 19 3
21 20 5
22 0 3
22 1 4
22 2 1
22 3 1
22 4 2
22 5 2
22 6 4
22 7 4
22 8 3
22 9 5
22 10 5
22 11 4
22 12 2
22 13 2
22 14 5
22 15 1
22 16 3
22 17 3
22 18 4
22 19 1
22 20 4
22 21 4
23 0 3
23 1 5
23 2 1
23 3 3
23 4 4
23 5 2
23 6 3
23 7 4
23 8 5
23 9 4
23 10 2
23 11 3
23 12 5
23 13 3
23 14 1
23 15 2
23 16 4
23 17 4
23 18 4
23 19 4
23 20 1
23 21 2
23 22 4
24 0 5
24 1 2
24 2 5
24 3 4
24 4 5
24 5 1
24 6 5
24 7 2
24 8 4
24 9 4
24 10 4
24 11 3
24 12 5
24 13 1
24 14 2
24 15 1
24 16 1
24 17 4
24 18 2
24 19 2
24 20 3
24 21 3
24 22 4
24 23 3
25 0 2
25 1 3
25 2 4
25 3 5
25 4 5
25 5 5
25 6 4
25 7 2
25 8 2
25 9 3
25 10 1
25 11 3
25 12 1
25 13 3
25 14 4
25 15 1
25 16 4
25 17 3
25 18 4
25 19 4
25 20 2
25 21 1
25 22 3
25 23 2
25 24 3
26 0 1
26 1 4
26 2 5
26 3 5
26 4 4
26 5 5
26 6 1
26 7 2
26 8 5
26 9 1
26 10 4
26 11 5
26 12 1
26 13 3
26 14 5
26 15 5
26 16 2
26 17 5
26 18 3
26 19 3
26 20 4
26 21 1
26 22 4
26 23 3
26 24 4
26 25 5
27 0 4
27 1 4
27 2 3
27 3 2
27 4 2
27 5 2
27 6 2
27 7 4
27 8 4
27 9 2
27 10 5
27 11 4
27 12 5
27 13 2
27 14 3
27 15 1
27 16 1
27 17 3
27 18 3
27 19 5
27 20 5
27 21 2
27 22 3
27 23 3
27 24 1
27 25 3
27 26 3
28 0 4
28 1 5
28 2 3
28 3 2
28 4 2
28 5 3
28 6 5
28 7 5
28 8 4
28 9 4
28 10 4
28 11 3
28 12 3
28 13 1
28 14 4
28 15 4
28 16 2
28 17 4
28 18 5
28 19 5
28 20 4
28 21 2
28 22 2
28 23 1
28 24 3
28 25 1
28 26 2
28 27 2
29 0 1
29 1 1
29 2 2
29 3 5
29 4 5
29 5 5
29 6 2
29 7 1
29 8 2
29 9 4
29 10 5
29 11 5
29 12 1
29 13 1
29 14 5
29 15 3
29 16 1
29 17 5
29 18 5
29 19 2
29 20 1
29 21 5
29 22 3
29 23 4
29 24 5
29 25 3
29 26 5
29 27 3
29 28 4
30 0 4
30 1 5
30 2 1
30 3 3
30 4 1
30 5 1
30 6 3
30 7 5
30 8 1
30 9 4
30 10 2
30 11 2
30 12 2
30 13 5
30 14 3
30 15 5
30 16 3
30 17 4
30 18 3
30 19 1
30 20 1
30 21 4
30 22 2
30 23 2
30 24 1
30 25 2
30 26 4
30 27 3
30 28 4
30 29 2
31 0 4
31 1 5
31 2 1
31 3 2
31 4 1
31 5 3
31 6 4
31 7 1
31 8 4
31 9 5
31 10 4
31 11 5
31 12 3
31 13 3
31 14 4
31 15 4
31 16 1
31 17 1
31 18 4
31 19 4
31 20 1
31 21 1
31 22 5
31 23 2
31 24 3
31 25 5
31 26 4
31 27 5
31 28 3
31 29 1
31 30 3
32 0 1
32 1 2
32 2 2
32 3 1
32 4 5
32 5 2
32 6 1
32 7 5
32 8 1
32 9 2
32 10 1
32 11 2
32 12 4
32 13 3
32 14 5
32 15 2
32 16 1
32 17 3
32 18 4
32 19 2
32 20 1
32 21 1
32 22 1
32 23 2
32 24 2
32 25 1
32 26 2
32 27 4
32 28 2
32 29 1
32 30 1
32 31 5
33 0 4
33 1 1
33 2 4
33 3 4
33 4 1
33 5 1
33 6 4
33 7 3
33 8 4
33 9 2
33 10 5
33 11 5
33 12 2
33 13 3
33 14 4
33 15 4
33 16 4
33 17 1
33 18 1
33 19 2
33 20 1
33 21 5
33 22 2
33 23 3
33 24 1
33 25 4
33 26 2
33 27 5
33 28 1
33 29 4
33 30 3
33 31 3
33 32 3
34 0 3
34 1 5
34 2 3
34 3 4
34 4 4
34 5 3
34 6 1
34 7 4
34 8 5
34 9 2
34 10 1
34 11 2
34 12 3
34 13 2
34 14 4
34 15 5
34 16 2
34 17 3
34 18 3
34 19 3
34 20 5
34 21 2
34 22 5
34 23 1
34 24 1
34 25 4
34 26 1
34 27 5
34 28 1
34 29 2
34 30 2
34 31 2
34 32 3
34 33 2
35 0 3
35 1 3
35 2 2
35 3 1
35 4 5
35 5 3
35 6 2
35 7 3
35 8 2
35 9 5
35 10 4
35 11 4
35 12 4
35 13 3
35 14 3
35 15 4
35 16 4
35 17 5
35 18 2
35 19 4
35 20 3
35 21 2
35 22 5
35 23 2
35 24 1
35 25 4
35 26 5
35 27 4
35 28 2
35 29 2
35 30 1
35 31 2
35 32 2
35 33 2
35 34 5
36 0 2
36 1 4
36 2 1
36 3 5
36 4 3
36 5 5
36 6 2
36 7 4
36 8 4
36 9 3
36 10 5
36 11 2
36 12 1
36 13 2
36 14 2
36 15 1
36 16 4
36 17 3
36 18 1
36 19 4
36 20 5
36 21 5
36 22 1
36 23 5
36 24 3
36 25 2
36 26 1
36 27 5
36 28 2
36 29 3
36 30 2
36 31 1
36 32 4
36 33 1
36 34 4
36 35 3
37 0 4
37 1 4
37 2 4
37 3 2
37 4 2
37 5 3
37 6 5
37 7 4
37 8 1
37 9 2
37 10 5
37 11 1
37 12 1
37 13 2
37 14 2
37 15 5
37 16 4
37 17 5
37 18 4
37 19 4
37 20 3
37 21 1
37 22 4
37 23 1
37 24 3
37 25 5
37 26 3
37 27 5
37 28 2
37 29 3
37 30 2
37 31 5
37 32 5
37 33 2
37 34 1
37 35 1
37 36 5
38 0 3
38 1 4
38 2 3
38 3 3
38 4 1
38 5 5
38 6 1
38 7 3
38 8 5
38 9 3
38 10 1
38 11 2
38 12 1
38 13 4
38 14 4
38 15 3
38 16 4
38 17 2
38 18 1
38 19 1
38 20 1
38 21 3
38 22 2
38 23 3
38 24 2
38 25 1
38 26 4
38 27 2
38 28 2
38 29 2
38 30 5
38 31 5
38 32 1
38 33 1
38 34 1
38 35 3
38 36 2
38 37 5
39 0 1
39 1 3
39 2 2
39 3 1
39 4 5
39 5 3
39 6 5
39 7 2
39 8 3
39 9 2
39 10 3
39 11 3
39 12 3
39 13 2
39 14 3
39 15 2
39 16 1
39 17 2
39 18 2
39 19 4
39 20 3
39 21 1
39 22 3
39 23 3
39 24 4
39 25 3
39 26 4
39 27 5
39 28 1
39 29 4
39 30 2
39 31 5
39 32 4
39 33 4
39 34 1
39 35 1
39 36 5
39 37 4
39 38 4
40 0 1
40 1 5
40 2 3
40 3 4
40 4 5
40 5 4
40 6 5
40 7 2
40 8 3
40 9 2
40 10 4
40 11 3
40 12 1
40 13 4
40 14 5
40 15 1
40 16 1
40 17 2
40 18 5
40 19 4
40 20 4
40 21 2
40 22 1
40 23 4
40 24 3
40 25 1
40 26 2
40 27 5
40 28 1
40 29 1
40 30 4
40 31 5
40 32 1
40 33 1
40 34 1
40 35 5
40 36 5
40 37 4
40 38 3
40 39 2
41 0 3
41 1 3
41 2 4
41 3 2
41 4 3
41 5 1
41 6 5
41 7 3
41 8 3
41 9 1
41 10 4
41 11 5
41 12 1
41 13 1
41 14 3
41 15 2
41 16 4
41 17 2
41 18 2
41 19 4
41 20 2
41 21 5
41 22 1
41 23 1
41 24 4
41 25 2
41 26 1
41 27 4
41 28 1
41 29 4
41 30 5
41 31 2
41 32 1
41 33 5
41 34 2
41 35 3
41 36 2
41 37 4
41 38 4
41 39 1
41 40 3
42 0 4
42 1 4
42 2 2
42 3 3
42 4 5
42 5 3
42 6 5
42 7 4
42 8 3
42 9 4
42 10 5
42 11 1
42 12 5
42 13 1
42 14 5
42 15 5
42 16 5
42 17 5
42 18 3
42 19 5
42 20 1
42 21 4
42 22 3
42 23 3
42 24 4
42 25 5
42 26 4
42 27 1
42 28 5
42 29 4
42 30 4
42 31 5
42 32 3
42 33 1
42 34 3
42 35 1
42 36 5
42 37 5
42 38 5
42 39 4
42 40 3
42 41 2
43 0 5
43 1 4
43 2 5
43 3 1
43 4 5
43 5 3
43 6 3
43 7 1
43 8 1
43 9 3
43 10 4
43 11 4
43 12 5
43 13 3
43 14 5
43 15 3
43 16 2
43 17 3
43 18 2
43 19 4
43 20 4
43 21 4
43 22 1
43 23 5
43 24 1
43 25 1
43 26 2
43 27 3
43 28 3
43 29 5
43 30 3
43 31 2
43 32 3
43 33 3
43 34 5
43 35 2
43 36 5
43 37 5
43 38 3
43 39 3
43 40 3
43 41 1
43 42 5
44 0 3
44 1 2
44 2 5
44 3 2
44 4 3
44 5 3
44 6 5
44 7 4
44 8 1
44 9 3
44 10 1
44 11 1
44 12 3
44 13 1
44 14 3
44 15 4
44 16 5
44 17 3
44 18 2
44 19 1
44 20 3
44 21 3
44 22 3
44 23 1
44 24 1
44 25 3
44 26 3
44 27 2
44 28 4
44 29 3
44 30 1
44 31 3
44 32 5
44 33 2
44 34 2
44 35 1
44 36 3
44 37 5
44 38 3
44 39 5
44 40 3
44 41 1
44 42 3
44 43 4
45 0 2
45 1 3
45 2 4
45 3 3
45 4 3
45 5 2
45 6 1
45 7 4
45 8 5
45 9 2
45 10 5
45 11 5
45 12 2
45 13 2
45 14 1
45 15 2
45 16 5
45 17 5
45 18 2
45 19 4
45 20 2
45 21 4
45 22 2
45 23 4
45 24 2
45 25 2
45 26 3
45 27 1
45 28 3
45 29 5
45 30 2
45 31 3
45 32 1
45 33 5
45 34 3
45 35 4
45 36 4
45 37 2
45 38 1
45 39 3
45 40 5
45 41 2
45 42 2
45 43 2
45 44 5
46 0 1
46 1 2
46 2 5
46 3 1
46 4 5
46 5 4
46 6 3
46 7 3
46 8 2
46 9 4
46 10 4
46 11 3
46 12 5
46 13 4
46 14 5
46 15 4
46 16 2
46 17 1
46 18 3
46 19 5
46 20 3
46 21 3
46 22 5
46 23 5
46 24 1
46 25 5
46 26 1
46 27 5
46 28 5
46 29 1
46 30 5
46 31 2
46 32 4
46 33 4
46 34 1
46 35 4
46 36 1
46 37 3
46 38 5
46 39 4
46 40 5
46 41 5
46 42 4
46 43 4
46 44 4
46 45 5
47 0 4
47 1 4
47 2 3
47 3 2
47 4 2
47 5 5
47 6 2
47 7 3
47 8 2
47 9 5
47 10 2
47 11 1
47 12 1
47 13 4
47 14 2
47 15 2
47 16 3
47 17 1
47 18 3
47 19 1
47 20 3
47 21 2
47 22 5
47 23 4
47 24 4
47 25 4
47 26 5
47 27 5
47 28 4
47 29 5
47 30 1
47 31 1
47 32 2
47 33 5
47 34 3
47 35 1
47 36 1
47 37 3
47 38 3
47 39 3
47 40 4
47 41 4
47 42 5
47 43 1
47 44 3
47 45 3
47 46 5
48 0 2
48 1 5
48 2 4
48 3 2
48 4 1
48 5 5
48 6 5
48 7 1
48 8 3
48 9 2
48 10 4
48 11 3
48 12 5
48 13 5
48 14 4
48 15 4
48 16 2
48 17 2
48 18 1
48 19 5
48 20 1
48 21 4
48 22 2
48 23 3
48 24 3
48 25 1
48 26 3
48 27 5
48 28 2
48 29 1
48 30 2
48 31 2
48 32 1
48 33 4
48 34 1
48 35 4
48 36 3
48 37 1
48 38 3
48 39 4
48 40 1
48 41 5
48 42 1
48 43 5
48 44 4
48 45 3
48 46 2
48 47 1
49 0 5
49 1 2
49 2 2
49 3 4
49 4 1
49 5 2
49 6 1
49 7 1
49 8 4
49 9 5
49 10 1
49 11 3
49 12 4
49 13 4
49 14 4
49 15 4
49 16 5
49 17 5
49 18 4
49 19 1
49 20 5
49 21 3
49 22 5
49 23 4
49 24 4
49 25 5
49 26 5
49 27 5
49 28 4
49 29 4
49 30 5
49 31 2
49 32 5
49 33 1
49 34 2
49 35 3
49 36 3
49 37 5
49 38 5
49 39 3
49 40 3
49 41 1
49 42 3
49 43 5
49 44 3
49 45 5
49 46 4
49 47 2
49 48 5
50 0 2
50 1 2
50 2 2
50 3 1
50 4 4
50 5 3
50 6 2
50 7 3
50 8 4
50 9 2
50 10 5
50 11 3
50 12 1
50 13 5
50 14 2
50 15 2
50 16 1
50 17 2
50 18 2
50 19 4
50 20 5
50 21 3
50 22 3
50 23 4
50 24 1
50 25 5
50 26 1
50 27 3
50 28 3
50 29 4
50 30 1
50 31 3
50 32 1
50 33 4
50 34 2
50 35 2
50 36 1
50 37 3
50 38 1
50 39 2
50 40 3
50 41 1
50 42 3
50 43 2
50 44 3
50 45 3
50 46 2
50 47 3
50 48 4
50 49 3
51 0 2
51 1 3
51 2 2
51 3 2
51 4 2
51 5 1
51 6 2
51 7 5
51 8 5
51 9 2
51 10 1
51 11 1
51 12 3
51 13 5
51 14 2
51 15 3
51 16 4
51 17 4
51 18 3
51 19 4
51 20 2
51 21 4
51 22 3
51 23 2
51 24 5
51 25 1
51 26 3
51 27 3
51 28 3
51 29 5
51 30 3
51 31 5
51 32 2
51 33 3
51 34 2
51 35 5
51 36 1
51 37 1
51 38 4
51 39 3
51 40 4
51 41 2
51 42 2
51 43 1
51 44 2
51 45 2
51 46 2
51 47 2
51 48 3
51 49 3
51 50 2
52 0 5
52 1 4
52 2 2
52 3 5
52 4 3
52 5 3
52 6 3
52 7 1
52 8 1
52 9 2
52 10 4
52 11 1
52 12 5
52 13 4
52 14 5
52 15 3
52 16 3
52 17 3
52 18 1
52 19 4
52 20 3
52 21 4
52 22 2
52 23 4
52 24 5
52 25 3
52 26 3
52 27 4
52 28 2
52 29 1
52 30 5
52 31 2
52 32 2
52 33 5
52 34 4
52 35 3
52 36 2
52 37 3
52 38 1
52 39 5
52 40 2
52 41 5
52 42 4
52 43 3
52 44 1
52 45 4
52 46 1
52 47 5
52 48 4
52 49 5
52 50 2
52 51 5
53 0 3
53 1 5
53 2 5
53 3 3
53 4 1
53 5 2
53 6 5
53 7 4
53 8 3
53 9 2
53 10 5
53 11 2
53 12 5
53 13 4
53 14 3
53 15 1
53 16 1
53 17 3
53 18 1
53 19 1
53 20 4
53 21 2
53 22 2
53 23 5
53 24 3
53 25 3
53 26 1
53 27 4
53 28 4
53 29 1
53 30 4
53 31 3
53 32 2
53 33 5
53 34 1
53 35 2
53 36 5
53 37 3
53 38 4
53 39 5
53 40 5
53 41 1
53 42 2
53 43 3
53 44 4
53 45 4
53 46 3
53 47 5
53 48 5
53 49 1
53 50 2
53 51 1
53 52 2
54 0 5
54 1 1
54 2 5
54 3 5
54 4 2
54 5 5
54 6 2
54 7 4
54 8 1
54 9 3
54 10 3
54 11 3
54 12 1
54 13 5
54 14 2
54 15 3
54 16 2
54 17 3
54 18 1
54 19 4
54 20 1
54 21 2
54 22 4
54 23 4
54 24 3
54 25 5
54 26 3
54 27 4
54 28 3
54 29 1
54 30 3
54 31 4
54 32 2
54 33 1
54 34 5
54 35 2
54 36 5
54 37 5
54 38 4
54 39 5
54 40 2
54 41 2
54 42 4
54 43 2
54 44 2
54 45 4
54 46 3
54 47 2
54 48 2
54 49 4
54 50 1
54 51 5
54 52 5
54 53 2
55 0 4
55 1 1
55 2 3
55 3 2
55 4 5
55 5 4
55 6 3
55 7 2
55 8 4
55 9 5
55 10 4
55 11 5
55 12 2
55 13 4
55 14 2
55 15 1
55 16 1
55 17 2
55 18 2
55 19 4
55 20 4
55 21 1
55 22 4
55 23 2
55 24 1
55 25 1
55 26 3
55 27 2
55 28 5
55 29 2
55 30 1
55 31 1
55 32 4
55 33 5
55 34 1
55 35 2
55 36 1
55 37 1
55 38 4
55 39 1
55 40 1
55 41 4
55 42 3
55 43 5
55 44 3
55 45 5
55 46 4
55 47 3
55 48 5
55 49 5
55 50 5
55 51 1
55 52 2
55 53 2
55 54 1
56 0 2
56 1 5
56 2 2
56 3 1
56 4 5
56 5 1
56 6 5
56 7 5
56 8 3
56 9 2
56 10 5
56 11 1
56 12 3
56 13 5
56 14 4
56 15 2
56 16 3
56 17 4
56 18 2
56 19 4
56 20 2
56 21 3
56 22 2
56 23 4
56 24 5
56 25 1
56 26 4
56 27 5
56 28 5
56 29 2
56 30 4
56 31 5
56 32 1
56 33 2
56 34 5
56 35 5
56 36 3
56 37 1
56 38 2
56 39 2
56 40 2
56 41 4
56 42 2
56 43 5
56 44 3
56 45 3
56 46 1
56 47 2
56 48 4
56 49 1
56 50 2
56 51 1
56 52 4
56 53 3
56 54 2
56 55 4
57 0 4
57 1 2
57 2 1
57 3 2
57 4 5
57 5 4
57 6 2
57 7 4
57 8 5
57 9 2
57 10 4
57 11 5
57 12 5
57 13 2
57 14 5
57 15 2
57 16 1
57 17 4
57 18 5
57 19 3
57 20 2
57 21 3
57 22 5
57 23 4
57 24 3
57 25 2
57 26 4
57 27 4
57 28 4
57 29 5
57 30 1
57 31 4
57 32 3
57 33 5
57 34 5
57 35 4
57 36 5
57 37 4
57 38 1
57 39 5
57 40 2
57 41 1
57 42 3
57 43 3
57 44 4
57 45 1
57 46 4
57 47 4
57 48 5
57 49 5
57 50 3
57 51 2
57 52 1
57 53 2
57 54 2
57 55 2
57 56 2
58 0 3
58 1 3
58 2 3
58 3 1
58 4 5
58 5 3
58 6 3
58 7 1
58 8 3
58 9 3
58 10 3
58 11 4
58 12 1
58 13 2
58 14 2
58 15 1
58 16 5
58 17 3
58 18 3
58 19 2
58 20 1
58 21 3
58 22 4
58 23 3
58 24 1
58 25 1
58 26 5
58 27 1
58 28 2
58 29 1
58 30 3
58 31 3
58 32 2
58 33 4
58 34 1
58 35 1
58 36 2
58 37 2
58 38 5
58 39 2
58 40 4
58 41 2
58 42 1
58 43 2
58 44 3
58 45 3
58 46 3
58 47 2
58 48 5
58 49 5
58 50 5
58 51 3
58 52 4
58 53 5
58 54 5
58 55 4
58 56 5
58 57 2
59 0 1
59 1 4
59 2 2
59 3 1
59 4 4
59 5 2
59 6 4
59 7 4
59 8 3
59 9 4
59 10 1
59 11 3
59 12 5
59 13 3
59 14 3
59 15 1
59 16 5
59 17 4
59 18 5
59 19 1
59 20 4
59 21 5
59 22 1
59 23 1
59 24 2
59 25 5
59 26 1
59 27 5
59 28 1
59 29 1
59 30 3
59 31 5
59 32 3
59 33 1
59 34 5
59 35 4
59 36 5
59 37 4
59 38 5
59 39 4
59 40 4
59 41 4
59 42 4
59 43 3
59 44 1
59 45 2
59 46 5
59 47 2
59 48 1
59 49 2
59 50 4
59 51 5
59 52 4
59 53 3
59 54 3
59 55 5
59 56 5
59 57 3
59 58 4
